431570
357977
317157
279145
229655
222362
191807
180973
167467
151163
143163
134447
127751
127751
123907
123907
123907
122498
122339
122339
122339
122339
122339
122339
122281
121227
121227
121227
121227
121227
121227
121227
121031
121031
121031
121031
120433
120433
117493
117493
117493
117493
117493
117493
117493
117493
117493
117493
117493
117493
117493
115502
115502
115502
115502
115502
115502
115502
115502
115502
115502
115502
115502
115502
115502
115502
115502
115502
115502
115502
115502
115502
115502
115502
115502
115502
115502
115502
115502
115502
115502
115502
115502
115502
115502
115502
115502
115502
114974
114974
114974
114974
114974
114974
114974
114161
114161
113242
113242
113242
